17037.0
23,32,37,44,53,56,70,84,109,137,147,159,211,236,245,249,262,269,289,292,317,379,397,398,421,426,446,463,469,473,479,493,539,550,573,599,603,610,643,657,658,669,708,726,732,736,743,770,775,807,827,830,845,886,945,967,989,1006,1048,1099,1114,1117,1143,1158,1168,1199,1248,1260,1300,1322,1341,1344,1361,1383,1394,1400,1413,1419,1431,1442,1457,1485,1489,1507,1515,1544,1548,1549,1604,1608,1638,1647,1662,1667,1671,1686,1692,1729,1731,1756,1770,1861,1868,1904,1906,1948,1953,1954,1964,1991,1997